NAME : n100w100.004.844.tour
COMMENT : Length = 844
COMMENT : Found by LKH [Keld Helsgaun] Tue May  2 05:52:31 2017
TYPE : TOUR
DIMENSION : 101
TOUR_SECTION
1
12
16
90
28
70
23
79
13
98
40
58
72
49
4
35
96
14
95
77
8
41
42
93
92
31
53
55
20
100
26
63
25
3
43
34
48
45
91
39
44
37
89
5
65
66
60
83
22
97
75
76
80
19
36
11
61
81
69
33
18
71
78
74
59
68
32
67
73
86
84
30
62
82
50
57
7
21
52
54
15
24
38
10
99
88
51
27
87
29
64
47
56
2
46
9
6
17
85
94
101
-1
EOF
